<?xml version = "1.0" encoding="UTF-8" standalone="yes"?>
<CPLEXSolution version="1.2">
 <header
   problemName="IloCplex"
   solutionName="p0"
   solutionIndex="-1"
   objectiveValue="24676731"
   solutionTypeValue="3"
   solutionTypeString="primal"
   solutionStatusValue="127"
   solutionStatusString="integer feasible solution"
   solutionMethodString="mip"
   primalFeasible="0"
   dualFeasible="0"
   writeLevel="3"/>
 <quality
   epInt="1.0000000000000001e-05"
   epRHS="9.9999999999999995e-07"
   maxIntInfeas="0"
   maxPrimalInfeas="0"
   maxX="1"
   maxSlack="1"/>
 <variables>
  <variable name="w0_1" index="1" value="1"/>
  <variable name="w0_2" index="2" value="1"/>
  <variable name="w0_3" index="3" value="1"/>
  <variable name="w0_7" index="7" value="1"/>
  <variable name="w0_8" index="8" value="1"/>
  <variable name="w0_9" index="9" value="1"/>
  <variable name="w0_10" index="10" value="1"/>
  <variable name="w0_11" index="11" value="1"/>
  <variable name="w0_12" index="12" value="1"/>
  <variable name="w1_1" index="15" value="1"/>
  <variable name="w1_2" index="16" value="1"/>
  <variable name="w1_3" index="17" value="1"/>
  <variable name="w1_7" index="21" value="1"/>
  <variable name="w1_8" index="22" value="1"/>
  <variable name="w1_9" index="23" value="1"/>
  <variable name="w1_10" index="24" value="1"/>
  <variable name="w1_11" index="25" value="1"/>
  <variable name="w1_12" index="26" value="1"/>
  <variable name="w4_1" index="57" value="1"/>
  <variable name="w4_2" index="58" value="1"/>
  <variable name="w4_3" index="59" value="1"/>
  <variable name="w4_7" index="63" value="1"/>
  <variable name="w4_8" index="64" value="1"/>
  <variable name="w4_9" index="65" value="1"/>
  <variable name="w4_10" index="66" value="1"/>
  <variable name="w4_11" index="67" value="1"/>
  <variable name="w4_12" index="68" value="1"/>
  <variable name="w6_1" index="85" value="1"/>
  <variable name="w6_2" index="86" value="1"/>
  <variable name="w6_3" index="87" value="1"/>
  <variable name="w6_7" index="91" value="1"/>
  <variable name="w6_8" index="92" value="1"/>
  <variable name="w6_9" index="93" value="1"/>
  <variable name="w6_10" index="94" value="1"/>
  <variable name="w6_11" index="95" value="1"/>
  <variable name="w6_12" index="96" value="1"/>
  <variable name="w10_1" index="141" value="1"/>
  <variable name="w10_2" index="142" value="1"/>
  <variable name="w10_3" index="143" value="1"/>
  <variable name="w10_7" index="147" value="1"/>
  <variable name="w10_8" index="148" value="1"/>
  <variable name="w10_9" index="149" value="1"/>
  <variable name="w10_10" index="150" value="1"/>
  <variable name="w10_11" index="151" value="1"/>
  <variable name="w10_12" index="152" value="1"/>
  <variable name="w12_1" index="169" value="1"/>
  <variable name="w12_2" index="170" value="1"/>
  <variable name="w12_3" index="171" value="1"/>
  <variable name="w12_7" index="175" value="1"/>
  <variable name="w12_8" index="176" value="1"/>
  <variable name="w12_9" index="177" value="1"/>
  <variable name="w12_10" index="178" value="1"/>
  <variable name="w12_11" index="179" value="1"/>
  <variable name="w12_12" index="180" value="1"/>
  <variable name="k0" index="196" value="1"/>
  <variable name="k1" index="197" value="1"/>
  <variable name="k4" index="200" value="1"/>
  <variable name="k6" index="202" value="1"/>
  <variable name="k10" index="206" value="1"/>
  <variable name="k12" index="208" value="1"/>
  <variable name="u1" index="211" value="1"/>
  <variable name="u2" index="212" value="1"/>
  <variable name="u3" index="213" value="1"/>
  <variable name="u7" index="217" value="1"/>
  <variable name="u8" index="218" value="1"/>
  <variable name="u9" index="219" value="1"/>
  <variable name="u10" index="220" value="1"/>
  <variable name="u11" index="221" value="1"/>
  <variable name="u12" index="222" value="1"/>
  <variable name="x0_23" index="247" value="1"/>
  <variable name="x1_183" index="607" value="1"/>
  <variable name="x2_11" index="635" value="1"/>
  <variable name="x3_133" index="957" value="1"/>
  <variable name="x4_199" index="1223" value="1"/>
  <variable name="x5_180" index="1404" value="1"/>
  <variable name="x6_177" index="1601" value="1"/>
  <variable name="x7_18" index="1642" value="1"/>
  <variable name="x8_40" index="1864" value="1"/>
  <variable name="x9_69" index="2093" value="1"/>
  <variable name="x10_166" index="2390" value="1"/>
  <variable name="x11_54" index="2478" value="1"/>
  <variable name="x12_44" index="2668" value="1"/>
  <variable name="x13_41" index="2865" value="1"/>
  <variable name="x14_104" index="3128" value="1"/>
  <variable name="x15_123" index="3347" value="1"/>
  <variable name="x16_117" index="3541" value="1"/>
  <variable name="x17_17" index="3641" value="1"/>
  <variable name="x18_85" index="3909" value="1"/>
  <variable name="x19_88" index="4112" value="1"/>
  <variable name="x20_19" index="4243" value="1"/>
  <variable name="x21_159" index="4583" value="1"/>
  <variable name="x22_170" index="4794" value="1"/>
  <variable name="x23_1" index="4825" value="1"/>
  <variable name="x24_141" index="5165" value="1"/>
  <variable name="x25_61" index="5285" value="1"/>
  <variable name="x26_178" index="5602" value="1"/>
  <variable name="x27_187" index="5811" value="1"/>
  <variable name="x28_188" index="6012" value="1"/>
  <variable name="x29_142" index="6166" value="1"/>
  <variable name="x30_22" index="6246" value="1"/>
  <variable name="x31_63" index="6487" value="1"/>
  <variable name="x32_94" index="6718" value="1"/>
  <variable name="x33_64" index="6888" value="1"/>
  <variable name="x34_5" index="7029" value="1"/>
  <variable name="x35_161" index="7385" value="1"/>
  <variable name="x36_128" index="7552" value="1"/>
  <variable name="x37_121" index="7745" value="1"/>
  <variable name="x38_151" index="7975" value="1"/>
  <variable name="x39_7" index="8031" value="1"/>
  <variable name="x40_186" index="8410" value="1"/>
  <variable name="x41_169" index="8593" value="1"/>
  <variable name="x42_56" index="8680" value="1"/>
  <variable name="x43_93" index="8917" value="1"/>
  <variable name="x44_35" index="9059" value="1"/>
  <variable name="x45_90" index="9314" value="1"/>
  <variable name="x46_70" index="9494" value="1"/>
  <variable name="x47_101" index="9725" value="1"/>
  <variable name="x48_32" index="9856" value="1"/>
  <variable name="x49_167" index="10191" value="1"/>
  <variable name="x50_152" index="10376" value="1"/>
  <variable name="x51_34" index="10458" value="1"/>
  <variable name="x52_48" index="10672" value="1"/>
  <variable name="x53_191" index="11015" value="1"/>
  <variable name="x54_58" index="11082" value="1"/>
  <variable name="x55_75" index="11299" value="1"/>
  <variable name="x56_71" index="11495" value="1"/>
  <variable name="x57_28" index="11652" value="1"/>
  <variable name="x58_52" index="11876" value="1"/>
  <variable name="x59_9" index="12033" value="1"/>
  <variable name="x60_67" index="12291" value="1"/>
  <variable name="x61_149" index="12573" value="1"/>
  <variable name="x62_12" index="12636" value="1"/>
  <variable name="x63_144" index="12968" value="1"/>
  <variable name="x64_145" index="13169" value="1"/>
  <variable name="x65_68" index="13292" value="1"/>
  <variable name="x66_164" index="13588" value="1"/>
  <variable name="x67_47" index="13671" value="1"/>
  <variable name="x68_73" index="13897" value="1"/>
  <variable name="x69_162" index="14186" value="1"/>
  <variable name="x70_53" index="14277" value="1"/>
  <variable name="x71_0" index="14424" value="1"/>
  <variable name="x72_163" index="14787" value="1"/>
  <variable name="x73_13" index="14837" value="1"/>
  <variable name="x74_8" index="15032" value="1"/>
  <variable name="x75_76" index="15300" value="1"/>
  <variable name="x76_43" index="15467" value="1"/>
  <variable name="x77_157" index="15781" value="1"/>
  <variable name="x78_120" index="15944" value="1"/>
  <variable name="x79_84" index="16108" value="1"/>
  <variable name="x80_29" index="16253" value="1"/>
  <variable name="x81_86" index="16510" value="1"/>
  <variable name="x82_111" index="16735" value="1"/>
  <variable name="x83_136" index="16960" value="1"/>
  <variable name="x84_194" index="17218" value="1"/>
  <variable name="x85_14" index="17238" value="1"/>
  <variable name="x86_155" index="17579" value="1"/>
  <variable name="x87_112" index="17736" value="1"/>
  <variable name="x88_197" index="18021" value="1"/>
  <variable name="x89_190" index="18214" value="1"/>
  <variable name="x90_60" index="18284" value="1"/>
  <variable name="x91_106" index="18530" value="1"/>
  <variable name="x92_2" index="18626" value="1"/>
  <variable name="x93_182" index="19006" value="1"/>
  <variable name="x94_83" index="19107" value="1"/>
  <variable name="x95_39" index="19263" value="1"/>
  <variable name="x96_59" index="19483" value="1"/>
  <variable name="x97_95" index="19719" value="1"/>
  <variable name="x98_25" index="19849" value="1"/>
  <variable name="x99_79" index="20103" value="1"/>
  <variable name="x100_154" index="20378" value="1"/>
  <variable name="x101_30" index="20454" value="1"/>
  <variable name="x102_31" index="20655" value="1"/>
  <variable name="x103_82" index="20906" value="1"/>
  <variable name="x104_89" index="21113" value="1"/>
  <variable name="x105_146" index="21370" value="1"/>
  <variable name="x106_108" index="21532" value="1"/>
  <variable name="x107_78" index="21702" value="1"/>
  <variable name="x108_105" index="21929" value="1"/>
  <variable name="x109_179" index="22203" value="1"/>
  <variable name="x110_198" index="22422" value="1"/>
  <variable name="x111_27" index="22451" value="1"/>
  <variable name="x112_81" index="22705" value="1"/>
  <variable name="x113_4" index="22828" value="1"/>
  <variable name="x114_193" index="23217" value="1"/>
  <variable name="x115_124" index="23348" value="1"/>
  <variable name="x116_21" index="23445" value="1"/>
  <variable name="x117_97" index="23721" value="1"/>
  <variable name="x118_113" index="23937" value="1"/>
  <variable name="x119_189" index="24213" value="1"/>
  <variable name="x120_116" index="24340" value="1"/>
  <variable name="x121_173" index="24597" value="1"/>
  <variable name="x122_137" index="24761" value="1"/>
  <variable name="x123_165" index="24989" value="1"/>
  <variable name="x124_20" index="25044" value="1"/>
  <variable name="x125_50" index="25274" value="1"/>
  <variable name="x126_107" index="25531" value="1"/>
  <variable name="x127_158" index="25782" value="1"/>
  <variable name="x128_127" index="25951" value="1"/>
  <variable name="x129_140" index="26164" value="1"/>
  <variable name="x130_42" index="26266" value="1"/>
  <variable name="x131_192" index="26616" value="1"/>
  <variable name="x132_46" index="26670" value="1"/>
  <variable name="x133_87" index="26911" value="1"/>
  <variable name="x134_150" index="27174" value="1"/>
  <variable name="x135_172" index="27396" value="1"/>
  <variable name="x136_181" index="27605" value="1"/>
  <variable name="x137_99" index="27723" value="1"/>
  <variable name="x138_115" index="27939" value="1"/>
  <variable name="x139_139" index="28163" value="1"/>
  <variable name="x140_156" index="28380" value="1"/>
  <variable name="x141_49" index="28473" value="1"/>
  <variable name="x142_175" index="28799" value="1"/>
  <variable name="x143_74" index="28898" value="1"/>
  <variable name="x144_184" index="29208" value="1"/>
  <variable name="x145_138" index="29362" value="1"/>
  <variable name="x146_114" index="29538" value="1"/>
  <variable name="x147_91" index="29715" value="1"/>
  <variable name="x148_57" index="29881" value="1"/>
  <variable name="x149_110" index="30134" value="1"/>
  <variable name="x150_196" index="30420" value="1"/>
  <variable name="x151_80" index="30504" value="1"/>
  <variable name="x152_26" index="30650" value="1"/>
  <variable name="x153_102" index="30926" value="1"/>
  <variable name="x154_171" index="31195" value="1"/>
  <variable name="x155_126" index="31350" value="1"/>
  <variable name="x156_98" index="31522" value="1"/>
  <variable name="x157_125" index="31749" value="1"/>
  <variable name="x158_15" index="31839" value="1"/>
  <variable name="x159_134" index="32158" value="1"/>
  <variable name="x160_153" index="32377" value="1"/>
  <variable name="x161_66" index="32490" value="1"/>
  <variable name="x162_118" index="32742" value="1"/>
  <variable name="x163_148" index="32972" value="1"/>
  <variable name="x164_65" index="33089" value="1"/>
  <variable name="x165_45" index="33269" value="1"/>
  <variable name="x166_3" index="33427" value="1"/>
  <variable name="x167_135" index="33759" value="1"/>
  <variable name="x168_195" index="34019" value="1"/>
  <variable name="x169_119" index="34143" value="1"/>
  <variable name="x170_174" index="34398" value="1"/>
  <variable name="x171_92" index="34516" value="1"/>
  <variable name="x172_33" index="34657" value="1"/>
  <variable name="x173_24" index="34848" value="1"/>
  <variable name="x174_10" index="35034" value="1"/>
  <variable name="x175_55" index="35279" value="1"/>
  <variable name="x176_37" index="35461" value="1"/>
  <variable name="x177_132" index="35756" value="1"/>
  <variable name="x178_131" index="35955" value="1"/>
  <variable name="x179_160" index="36184" value="1"/>
  <variable name="x180_96" index="36320" value="1"/>
  <variable name="x181_130" index="36554" value="1"/>
  <variable name="x182_168" index="36792" value="1"/>
  <variable name="x183_51" index="36875" value="1"/>
  <variable name="x184_122" index="37146" value="1"/>
  <variable name="x185_143" index="37367" value="1"/>
  <variable name="x186_147" index="37571" value="1"/>
  <variable name="x187_129" index="37753" value="1"/>
  <variable name="x188_6" index="37830" value="1"/>
  <variable name="x189_109" index="38133" value="1"/>
  <variable name="x190_185" index="38409" value="1"/>
  <variable name="x191_36" index="38460" value="1"/>
  <variable name="x192_103" index="38727" value="1"/>
  <variable name="x193_176" index="39000" value="1"/>
  <variable name="x194_100" index="39124" value="1"/>
  <variable name="x195_77" index="39301" value="1"/>
  <variable name="x196_38" index="39462" value="1"/>
  <variable name="x197_62" index="39686" value="1"/>
  <variable name="x198_72" index="39896" value="1"/>
  <variable name="x199_16" index="40040" value="1"/>
 </variables>
</CPLEXSolution>
